20180226 60700.00 53500.00
20180119 60257.40 53573.81
20171120 60257.40 53573.81
20170912 60128.58 53029.22
20170612 60128.58 53269.76
20161012 60656.33 52640.67
20160630 59078.25 52640.67
20160527 59078.25 52613.65
20160104 59656.13 52017.15
